(set-logic QF_NRA)
(set-info :source |Benchmarks generated from hycomp (https://es-static.fbk.eu/tools/hycomp/). BMC instances of non-linear hybrid automata taken from: Alessandro Cimatti, Sergio Mover, Stefano Tonetta, A quantifier-free SMT encoding of non-linear hybrid automata, FMCAD 2012 and Alessandro Cimatti, Sergio Mover, Stefano Tonetta, Quantier-free encoding of invariants for Hybrid Systems, Formal Methods in System Design. This instance solves a BMC problem of depth 2 and uses the quantifier free encoding with equivalences and lemmas encoding. Contacts: Sergio Mover (mover@fbk.eu), Stefano Tonetta (tonettas@fbk.eu), Alessandro Cimatti (cimatti@fbk.eu).|)
(set-info :smt-lib-version 2.0)
(set-info :category "industrial")
(set-info :status unsat)
;; MathSAT API call trace
;; generated on Mon Mar 19 10:43:59 2012
(declare-fun b.x__AT0 () Real)
(declare-fun b.speed_y__AT1 () Real)
(declare-fun b.delta__AT1 () Real)
(declare-fun b.bool_atom__AT0 () Bool)
(declare-fun b.y__AT0 () Real)
(declare-fun b.EVENT.1__AT1 () Bool)
(declare-fun b.EVENT.0__AT1 () Bool)
(declare-fun b.counter.0__AT0 () Bool)
(declare-fun b.delta__AT0 () Real)
(declare-fun b.counter.1__AT0 () Bool)
(declare-fun b.event_is_timed__AT2 () Bool)
(declare-fun b.y__AT1 () Real)
(declare-fun b.EVENT.0__AT0 () Bool)
(declare-fun b.event_is_timed__AT0 () Bool)
(declare-fun b.time__AT2 () Real)
(declare-fun b.y__AT2 () Real)
(declare-fun b.speed_y__AT0 () Real)
(declare-fun b.delta__AT2 () Real)
(declare-fun b.counter.0__AT2 () Bool)
(declare-fun b.speed_x__AT1 () Real)
(declare-fun b.x__AT2 () Real)
(declare-fun b.EVENT.0__AT2 () Bool)
(declare-fun b.counter.1__AT2 () Bool)
(declare-fun b.EVENT.1__AT2 () Bool)
(declare-fun b.counter.2__AT2 () Bool)
(declare-fun b.counter.3__AT2 () Bool)
(declare-fun b.EVENT.1__AT0 () Bool)
(declare-fun b.counter.3__AT0 () Bool)
(declare-fun b.bool_atom__AT2 () Bool)
(declare-fun b.speed_x__AT2 () Real)
(declare-fun b.speed_y__AT2 () Real)
(declare-fun b.time__AT1 () Real)
(declare-fun b.x__AT1 () Real)
(declare-fun b.event_is_timed__AT1 () Bool)
(declare-fun b.counter.0__AT1 () Bool)
(declare-fun b.speed_loss__AT0 () Real)
(declare-fun b.counter.1__AT1 () Bool)
(declare-fun b.speed_x__AT0 () Real)
(declare-fun b.counter.2__AT1 () Bool)
(declare-fun b.time__AT0 () Real)
(declare-fun b.counter.2__AT0 () Bool)
(declare-fun b.counter.3__AT1 () Bool)
(declare-fun b.bool_atom__AT1 () Bool)
(assert (let ((.def_970 (* (- 49.0) b.delta__AT2)))
(let ((.def_971 (* 5.0 b.speed_y__AT2)))
(let ((.def_973 (+ .def_971 .def_970)))
(let ((.def_986 (<= 0.0 .def_973)))
(let ((.def_987 (not .def_986)))
(let ((.def_984 (<= 0.0 b.speed_y__AT2)))
(let ((.def_1001 (or .def_984 .def_987)))
(let ((.def_976 (<= b.speed_y__AT2 0.0 )))
(let ((.def_977 (not .def_976)))
(let ((.def_974 (<= .def_973 0.0 )))
(let ((.def_1000 (or .def_974 .def_977)))
(let ((.def_1002 (and .def_1000 .def_1001)))
(let ((.def_856 (* b.y__AT2 b.speed_y__AT2)))
(let ((.def_897 (* 2.0 .def_856)))
(let ((.def_898 (+ b.speed_x__AT2 .def_897)))
(let ((.def_911 (<= .def_898 0.0 )))
(let ((.def_997 (and .def_911 .def_986)))
(let ((.def_899 (<= 0.0 .def_898)))
(let ((.def_996 (and .def_899 .def_974)))
(let ((.def_998 (or .def_996 .def_997)))
(let ((.def_845 (* (- (/ 49 10)) b.speed_y__AT2)))
(let ((.def_874 (* 3.0 .def_845)))
(let ((.def_930 (* 2.0 .def_874)))
(let ((.def_931 (* b.delta__AT2 .def_930)))
(let ((.def_932 (* (- 50.0) .def_931)))
(let ((.def_840 (* b.delta__AT2 b.delta__AT2)))
(let ((.def_929 (* (- 7203.0) .def_840)))
(let ((.def_933 (+ .def_929 .def_932)))
(let ((.def_715 (* b.speed_y__AT2 b.speed_y__AT2)))
(let ((.def_934 (* (- 50.0) .def_715)))
(let ((.def_938 (+ .def_934 .def_933)))
(let ((.def_936 (* 490.0 b.y__AT2)))
(let ((.def_939 (+ .def_936 .def_938)))
(let ((.def_956 (<= 0.0 .def_939)))
(let ((.def_957 (not .def_956)))
(let ((.def_942 (* (- 5.0) .def_715)))
(let ((.def_943 (* 49.0 b.y__AT2)))
(let ((.def_945 (+ .def_943 .def_942)))
(let ((.def_954 (<= 0.0 .def_945)))
(let ((.def_991 (or .def_954 .def_957)))
(let ((.def_946 (<= .def_945 0.0 )))
(let ((.def_947 (not .def_946)))
(let ((.def_940 (<= .def_939 0.0 )))
(let ((.def_990 (or .def_940 .def_947)))
(let ((.def_992 (and .def_990 .def_991)))
(let ((.def_985 (not .def_984)))
(let ((.def_988 (or .def_985 .def_987)))
(let ((.def_989 (not .def_988)))
(let ((.def_993 (or .def_989 .def_992)))
(let ((.def_941 (not .def_940)))
(let ((.def_981 (or .def_941 .def_946)))
(let ((.def_955 (not .def_954)))
(let ((.def_980 (or .def_955 .def_956)))
(let ((.def_982 (and .def_980 .def_981)))
(let ((.def_975 (not .def_974)))
(let ((.def_978 (or .def_975 .def_977)))
(let ((.def_979 (not .def_978)))
(let ((.def_983 (or .def_979 .def_982)))
(let ((.def_994 (and .def_983 .def_993)))
(let ((.def_967 (and .def_911 .def_956)))
(let ((.def_966 (and .def_899 .def_940)))
(let ((.def_968 (or .def_966 .def_967)))
(let ((.def_852 (* (- (/ 49 10)) b.y__AT2)))
(let ((.def_882 (* 2.0 .def_852)))
(let ((.def_883 (* b.delta__AT2 .def_882)))
(let ((.def_884 (* 50.0 .def_883)))
(let ((.def_878 (* 2.0 .def_715)))
(let ((.def_879 (* b.delta__AT2 .def_878)))
(let ((.def_880 (* 25.0 .def_879)))
(let ((.def_890 (+ .def_880 .def_884)))
(let ((.def_875 (* .def_840 .def_874)))
(let ((.def_876 (* 50.0 .def_875)))
(let ((.def_891 (+ .def_876 .def_890)))
(let ((.def_886 (* 50.0 .def_856)))
(let ((.def_892 (+ .def_886 .def_891)))
(let ((.def_841 (* b.delta__AT2 .def_840)))
(let ((.def_873 (* 2401.0 .def_841)))
(let ((.def_893 (+ .def_873 .def_892)))
(let ((.def_888 (* 25.0 b.speed_x__AT2)))
(let ((.def_894 (+ .def_888 .def_893)))
(let ((.def_913 (<= .def_894 0.0 )))
(let ((.def_914 (not .def_913)))
(let ((.def_961 (or .def_911 .def_914)))
(let ((.def_900 (not .def_899)))
(let ((.def_895 (<= 0.0 .def_894)))
(let ((.def_960 (or .def_895 .def_900)))
(let ((.def_962 (and .def_960 .def_961)))
(let ((.def_958 (or .def_955 .def_957)))
(let ((.def_959 (not .def_958)))
(let ((.def_963 (or .def_959 .def_962)))
(let ((.def_896 (not .def_895)))
(let ((.def_951 (or .def_896 .def_899)))
(let ((.def_912 (not .def_911)))
(let ((.def_950 (or .def_912 .def_913)))
(let ((.def_952 (and .def_950 .def_951)))
(let ((.def_948 (or .def_941 .def_947)))
(let ((.def_949 (not .def_948)))
(let ((.def_953 (or .def_949 .def_952)))
(let ((.def_964 (and .def_953 .def_963)))
(let ((.def_926 (and .def_911 .def_913)))
(let ((.def_925 (and .def_895 .def_899)))
(let ((.def_927 (or .def_925 .def_926)))
(let ((.def_857 (* b.delta__AT2 .def_856)))
(let ((.def_858 (* 200.0 .def_857)))
(let ((.def_853 (* .def_840 .def_852)))
(let ((.def_854 (* 200.0 .def_853)))
(let ((.def_864 (+ .def_854 .def_858)))
(let ((.def_849 (* .def_715 .def_840)))
(let ((.def_850 (* 100.0 .def_849)))
(let ((.def_865 (+ .def_850 .def_864)))
(let ((.def_846 (* .def_841 .def_845)))
(let ((.def_847 (* 200.0 .def_846)))
(let ((.def_866 (+ .def_847 .def_865)))
(let ((.def_842 (* b.delta__AT2 .def_841)))
(let ((.def_843 (* 2401.0 .def_842)))
(let ((.def_867 (+ .def_843 .def_866)))
(let ((.def_838 (* b.speed_x__AT2 b.delta__AT2)))
(let ((.def_839 (* 100.0 .def_838)))
(let ((.def_868 (+ .def_839 .def_867)))
(let ((.def_818 (* b.y__AT2 b.y__AT2)))
(let ((.def_860 (* 100.0 .def_818)))
(let ((.def_869 (+ .def_860 .def_868)))
(let ((.def_862 (* 100.0 b.x__AT2)))
(let ((.def_870 (+ .def_862 .def_869)))
(let ((.def_905 (<= .def_870 0.0 )))
(let ((.def_919 (not .def_905)))
(let ((.def_819 (+ b.x__AT2 .def_818)))
(let ((.def_903 (<= .def_819 0.0 )))
(let ((.def_920 (or .def_903 .def_919)))
(let ((.def_820 (<= 0.0 .def_819)))
(let ((.def_917 (not .def_820)))
(let ((.def_871 (<= 0.0 .def_870)))
(let ((.def_918 (or .def_871 .def_917)))
(let ((.def_921 (and .def_918 .def_920)))
(let ((.def_915 (or .def_912 .def_914)))
(let ((.def_916 (not .def_915)))
(let ((.def_922 (or .def_916 .def_921)))
(let ((.def_907 (not .def_871)))
(let ((.def_908 (or .def_820 .def_907)))
(let ((.def_904 (not .def_903)))
(let ((.def_906 (or .def_904 .def_905)))
(let ((.def_909 (and .def_906 .def_908)))
(let ((.def_901 (or .def_896 .def_900)))
(let ((.def_902 (not .def_901)))
(let ((.def_910 (or .def_902 .def_909)))
(let ((.def_923 (and .def_910 .def_922)))
(let ((.def_872 (and .def_820 .def_871)))
(let ((.def_924 (and .def_872 .def_923)))
(let ((.def_928 (and .def_924 .def_927)))
(let ((.def_965 (and .def_928 .def_964)))
(let ((.def_969 (and .def_965 .def_968)))
(let ((.def_995 (and .def_969 .def_994)))
(let ((.def_999 (and .def_995 .def_998)))
(let ((.def_1003 (and .def_999 .def_1002)))
(let ((.def_77 (<= b.speed_loss__AT0 (/ 1 2))))
(let ((.def_74 (<= (/ 1 10) b.speed_loss__AT0)))
(let ((.def_78 (and .def_74 .def_77)))
(let ((.def_1004 (and .def_78 .def_1003)))
(let ((.def_367 (not b.counter.0__AT1)))
(let ((.def_830 (or b.counter.1__AT1 .def_367)))
(let ((.def_831 (or b.counter.2__AT1 .def_830)))
(let ((.def_357 (not b.counter.1__AT1)))
(let ((.def_825 (and .def_357 .def_367)))
(let ((.def_362 (not b.counter.2__AT1)))
(let ((.def_829 (or .def_362 .def_825)))
(let ((.def_832 (and .def_829 .def_831)))
(let ((.def_833 (or b.counter.3__AT1 .def_832)))
(let ((.def_826 (or b.counter.2__AT1 .def_825)))
(let ((.def_824 (or .def_357 .def_362)))
(let ((.def_827 (and .def_824 .def_826)))
(let ((.def_376 (not b.counter.3__AT1)))
(let ((.def_828 (or .def_376 .def_827)))
(let ((.def_834 (and .def_828 .def_833)))
(let ((.def_821 (and .def_78 .def_820)))
(let ((.def_815 (not b.EVENT.0__AT2)))
(let ((.def_813 (not b.EVENT.1__AT2)))
(let ((.def_816 (or .def_813 .def_815)))
(let ((.def_9 (not b.counter.0__AT2)))
(let ((.def_6 (not b.counter.1__AT2)))
(let ((.def_806 (or .def_6 .def_9)))
(let ((.def_810 (or b.counter.3__AT2 .def_806)))
(let ((.def_807 (or b.counter.2__AT2 .def_806)))
(let ((.def_4 (not b.counter.2__AT2)))
(let ((.def_805 (or .def_4 .def_9)))
(let ((.def_808 (and .def_805 .def_807)))
(let ((.def_14 (not b.counter.3__AT2)))
(let ((.def_809 (or .def_14 .def_808)))
(let ((.def_811 (and .def_809 .def_810)))
(let ((.def_817 (and .def_811 .def_816)))
(let ((.def_822 (and .def_817 .def_821)))
(let ((.def_800 (<= 0.0 b.delta__AT1)))
(let ((.def_456 (not b.EVENT.0__AT1)))
(let ((.def_454 (not b.EVENT.1__AT1)))
(let ((.def_646 (and .def_454 .def_456)))
(let ((.def_648 (not .def_646)))
(let ((.def_801 (or .def_648 .def_800)))
(let ((.def_802 (or b.EVENT.1__AT1 .def_801)))
(let ((.def_686 (= b.bool_atom__AT1 b.bool_atom__AT2)))
(let ((.def_682 (= b.counter.0__AT2 b.counter.0__AT1)))
(let ((.def_680 (= b.counter.1__AT2 b.counter.1__AT1)))
(let ((.def_678 (= b.counter.2__AT2 b.counter.2__AT1)))
(let ((.def_677 (= b.counter.3__AT2 b.counter.3__AT1)))
(let ((.def_679 (and .def_677 .def_678)))
(let ((.def_681 (and .def_679 .def_680)))
(let ((.def_683 (and .def_681 .def_682)))
(let ((.def_796 (and .def_683 .def_686)))
(let ((.def_797 (or .def_648 .def_796)))
(let ((.def_798 (or b.EVENT.1__AT1 .def_797)))
(let ((.def_779 (* b.speed_y__AT1 b.delta__AT1)))
(let ((.def_780 (* 10.0 .def_779)))
(let ((.def_781 (* (- 10.0) b.y__AT2)))
(let ((.def_787 (+ .def_781 .def_780)))
(let ((.def_480 (* b.delta__AT1 b.delta__AT1)))
(let ((.def_783 (* (- 49.0) .def_480)))
(let ((.def_788 (+ .def_783 .def_787)))
(let ((.def_785 (* 10.0 b.y__AT1)))
(let ((.def_789 (+ .def_785 .def_788)))
(let ((.def_790 (= .def_789 0.0 )))
(let ((.def_774 (* (- 5.0) b.speed_y__AT2)))
(let ((.def_610 (* (- 49.0) b.delta__AT1)))
(let ((.def_775 (+ .def_610 .def_774)))
(let ((.def_611 (* 5.0 b.speed_y__AT1)))
(let ((.def_776 (+ .def_611 .def_775)))
(let ((.def_777 (= .def_776 0.0 )))
(let ((.def_770 (* (- 1.0) b.x__AT2)))
(let ((.def_478 (* b.speed_x__AT1 b.delta__AT1)))
(let ((.def_771 (+ .def_478 .def_770)))
(let ((.def_772 (+ b.x__AT1 .def_771)))
(let ((.def_773 (= .def_772 0.0 )))
(let ((.def_778 (and .def_773 .def_777)))
(let ((.def_791 (and .def_778 .def_790)))
(let ((.def_672 (= b.speed_x__AT1 b.speed_x__AT2)))
(let ((.def_792 (and .def_672 .def_791)))
(let ((.def_793 (or .def_648 .def_792)))
(let ((.def_669 (= b.y__AT1 b.y__AT2)))
(let ((.def_666 (= b.x__AT1 b.x__AT2)))
(let ((.def_764 (and .def_666 .def_669)))
(let ((.def_765 (and .def_672 .def_764)))
(let ((.def_675 (= b.speed_y__AT1 b.speed_y__AT2)))
(let ((.def_766 (and .def_675 .def_765)))
(let ((.def_761 (= b.delta__AT1 0.0 )))
(let ((.def_762 (and .def_646 .def_761)))
(let ((.def_763 (not .def_762)))
(let ((.def_767 (or .def_763 .def_766)))
(let ((.def_768 (or b.EVENT.1__AT1 .def_767)))
(let ((.def_753 (and .def_672 .def_675)))
(let ((.def_754 (and .def_683 .def_753)))
(let ((.def_755 (or b.bool_atom__AT1 .def_754)))
(let ((.def_729 (or .def_9 b.counter.0__AT1)))
(let ((.def_728 (or b.counter.0__AT2 .def_367)))
(let ((.def_730 (and .def_728 .def_729)))
(let ((.def_731 (and .def_6 .def_730)))
(let ((.def_732 (or b.counter.1__AT1 .def_731)))
(let ((.def_727 (or b.counter.1__AT2 .def_357)))
(let ((.def_733 (and .def_727 .def_732)))
(let ((.def_744 (and .def_4 .def_733)))
(let ((.def_745 (or b.counter.2__AT1 .def_744)))
(let ((.def_739 (and .def_6 .def_367)))
(let ((.def_740 (or b.counter.1__AT1 .def_739)))
(let ((.def_741 (and .def_727 .def_740)))
(let ((.def_742 (and b.counter.2__AT2 .def_741)))
(let ((.def_743 (or .def_362 .def_742)))
(let ((.def_746 (and .def_743 .def_745)))
(let ((.def_747 (and b.counter.3__AT2 .def_746)))
(let ((.def_748 (or b.counter.3__AT1 .def_747)))
(let ((.def_734 (and b.counter.2__AT2 .def_733)))
(let ((.def_735 (or b.counter.2__AT1 .def_734)))
(let ((.def_723 (or b.counter.1__AT2 b.counter.1__AT1)))
(let ((.def_721 (and .def_6 b.counter.0__AT2)))
(let ((.def_722 (or .def_357 .def_721)))
(let ((.def_724 (and .def_722 .def_723)))
(let ((.def_725 (and .def_4 .def_724)))
(let ((.def_726 (or .def_362 .def_725)))
(let ((.def_736 (and .def_726 .def_735)))
(let ((.def_737 (and .def_14 .def_736)))
(let ((.def_738 (or .def_376 .def_737)))
(let ((.def_749 (and .def_738 .def_748)))
(let ((.def_351 (* b.speed_y__AT1 b.speed_y__AT1)))
(let ((.def_344 (* b.speed_x__AT1 b.speed_x__AT1)))
(let ((.def_711 (+ .def_344 .def_351)))
(let ((.def_332 (* (- 1.0) b.speed_loss__AT0)))
(let ((.def_333 (+ 1.0 .def_332)))
(let ((.def_345 (* .def_333 .def_333)))
(let ((.def_712 (* .def_345 .def_711)))
(let ((.def_713 (* (- 1.0) .def_712)))
(let ((.def_717 (+ .def_713 .def_715)))
(let ((.def_710 (* b.speed_x__AT2 b.speed_x__AT2)))
(let ((.def_718 (+ .def_710 .def_717)))
(let ((.def_719 (= .def_718 0.0 )))
(let ((.def_330 (* 2.0 b.y__AT1)))
(let ((.def_702 (* .def_330 .def_333)))
(let ((.def_703 (* b.speed_y__AT1 .def_702)))
(let ((.def_700 (* b.speed_x__AT1 .def_333)))
(let ((.def_706 (+ .def_700 .def_703)))
(let ((.def_698 (* 2.0 b.y__AT2)))
(let ((.def_699 (* b.speed_y__AT2 .def_698)))
(let ((.def_707 (+ .def_699 .def_706)))
(let ((.def_708 (+ b.speed_x__AT2 .def_707)))
(let ((.def_709 (= .def_708 0.0 )))
(let ((.def_720 (and .def_709 .def_719)))
(let ((.def_750 (and .def_720 .def_749)))
(let ((.def_697 (not b.bool_atom__AT1)))
(let ((.def_751 (or .def_697 .def_750)))
(let ((.def_331 (* b.speed_y__AT1 .def_330)))
(let ((.def_692 (+ b.speed_x__AT1 .def_331)))
(let ((.def_693 (<= 0.0 .def_692)))
(let ((.def_694 (not .def_693)))
(let ((.def_459 (* b.y__AT1 b.y__AT1)))
(let ((.def_460 (+ b.x__AT1 .def_459)))
(let ((.def_691 (= .def_460 0.0 )))
(let ((.def_695 (and .def_691 .def_694)))
(let ((.def_696 (= b.bool_atom__AT1 .def_695)))
(let ((.def_752 (and .def_696 .def_751)))
(let ((.def_756 (and .def_752 .def_755)))
(let ((.def_757 (and .def_666 .def_756)))
(let ((.def_758 (and .def_669 .def_757)))
(let ((.def_759 (or .def_646 .def_758)))
(let ((.def_760 (or b.EVENT.1__AT1 .def_759)))
(let ((.def_769 (and .def_760 .def_768)))
(let ((.def_794 (and .def_769 .def_793)))
(let ((.def_653 (= b.time__AT1 b.time__AT2)))
(let ((.def_667 (and .def_653 .def_666)))
(let ((.def_670 (and .def_667 .def_669)))
(let ((.def_673 (and .def_670 .def_672)))
(let ((.def_676 (and .def_673 .def_675)))
(let ((.def_684 (and .def_676 .def_683)))
(let ((.def_687 (and .def_684 .def_686)))
(let ((.def_688 (or .def_454 .def_687)))
(let ((.def_656 (* (- 1.0) b.time__AT2)))
(let ((.def_659 (+ b.delta__AT1 .def_656)))
(let ((.def_660 (+ b.time__AT1 .def_659)))
(let ((.def_661 (= .def_660 0.0 )))
(let ((.def_662 (or .def_648 .def_661)))
(let ((.def_663 (or b.EVENT.1__AT1 .def_662)))
(let ((.def_654 (or .def_646 .def_653)))
(let ((.def_655 (or b.EVENT.1__AT1 .def_654)))
(let ((.def_664 (and .def_655 .def_663)))
(let ((.def_689 (and .def_664 .def_688)))
(let ((.def_650 (= .def_648 b.event_is_timed__AT2)))
(let ((.def_647 (= b.event_is_timed__AT1 .def_646)))
(let ((.def_651 (and .def_647 .def_650)))
(let ((.def_690 (and .def_651 .def_689)))
(let ((.def_795 (and .def_690 .def_794)))
(let ((.def_799 (and .def_795 .def_798)))
(let ((.def_803 (and .def_799 .def_802)))
(let ((.def_804 (and .def_454 .def_803)))
(let ((.def_823 (and .def_804 .def_822)))
(let ((.def_835 (and .def_823 .def_834)))
(let ((.def_613 (+ .def_611 .def_610)))
(let ((.def_626 (<= 0.0 .def_613)))
(let ((.def_627 (not .def_626)))
(let ((.def_624 (<= 0.0 b.speed_y__AT1)))
(let ((.def_641 (or .def_624 .def_627)))
(let ((.def_616 (<= b.speed_y__AT1 0.0 )))
(let ((.def_617 (not .def_616)))
(let ((.def_614 (<= .def_613 0.0 )))
(let ((.def_640 (or .def_614 .def_617)))
(let ((.def_642 (and .def_640 .def_641)))
(let ((.def_496 (* b.y__AT1 b.speed_y__AT1)))
(let ((.def_537 (* 2.0 .def_496)))
(let ((.def_538 (+ b.speed_x__AT1 .def_537)))
(let ((.def_551 (<= .def_538 0.0 )))
(let ((.def_637 (and .def_551 .def_626)))
(let ((.def_539 (<= 0.0 .def_538)))
(let ((.def_636 (and .def_539 .def_614)))
(let ((.def_638 (or .def_636 .def_637)))
(let ((.def_485 (* (- (/ 49 10)) b.speed_y__AT1)))
(let ((.def_514 (* 3.0 .def_485)))
(let ((.def_570 (* 2.0 .def_514)))
(let ((.def_571 (* b.delta__AT1 .def_570)))
(let ((.def_572 (* (- 50.0) .def_571)))
(let ((.def_569 (* (- 7203.0) .def_480)))
(let ((.def_573 (+ .def_569 .def_572)))
(let ((.def_574 (* (- 50.0) .def_351)))
(let ((.def_578 (+ .def_574 .def_573)))
(let ((.def_576 (* 490.0 b.y__AT1)))
(let ((.def_579 (+ .def_576 .def_578)))
(let ((.def_596 (<= 0.0 .def_579)))
(let ((.def_597 (not .def_596)))
(let ((.def_582 (* (- 5.0) .def_351)))
(let ((.def_583 (* 49.0 b.y__AT1)))
(let ((.def_585 (+ .def_583 .def_582)))
(let ((.def_594 (<= 0.0 .def_585)))
(let ((.def_631 (or .def_594 .def_597)))
(let ((.def_586 (<= .def_585 0.0 )))
(let ((.def_587 (not .def_586)))
(let ((.def_580 (<= .def_579 0.0 )))
(let ((.def_630 (or .def_580 .def_587)))
(let ((.def_632 (and .def_630 .def_631)))
(let ((.def_625 (not .def_624)))
(let ((.def_628 (or .def_625 .def_627)))
(let ((.def_629 (not .def_628)))
(let ((.def_633 (or .def_629 .def_632)))
(let ((.def_581 (not .def_580)))
(let ((.def_621 (or .def_581 .def_586)))
(let ((.def_595 (not .def_594)))
(let ((.def_620 (or .def_595 .def_596)))
(let ((.def_622 (and .def_620 .def_621)))
(let ((.def_615 (not .def_614)))
(let ((.def_618 (or .def_615 .def_617)))
(let ((.def_619 (not .def_618)))
(let ((.def_623 (or .def_619 .def_622)))
(let ((.def_634 (and .def_623 .def_633)))
(let ((.def_607 (and .def_551 .def_596)))
(let ((.def_606 (and .def_539 .def_580)))
(let ((.def_608 (or .def_606 .def_607)))
(let ((.def_492 (* (- (/ 49 10)) b.y__AT1)))
(let ((.def_522 (* 2.0 .def_492)))
(let ((.def_523 (* b.delta__AT1 .def_522)))
(let ((.def_524 (* 50.0 .def_523)))
(let ((.def_518 (* 2.0 .def_351)))
(let ((.def_519 (* b.delta__AT1 .def_518)))
(let ((.def_520 (* 25.0 .def_519)))
(let ((.def_530 (+ .def_520 .def_524)))
(let ((.def_515 (* .def_480 .def_514)))
(let ((.def_516 (* 50.0 .def_515)))
(let ((.def_531 (+ .def_516 .def_530)))
(let ((.def_526 (* 50.0 .def_496)))
(let ((.def_532 (+ .def_526 .def_531)))
(let ((.def_481 (* b.delta__AT1 .def_480)))
(let ((.def_513 (* 2401.0 .def_481)))
(let ((.def_533 (+ .def_513 .def_532)))
(let ((.def_528 (* 25.0 b.speed_x__AT1)))
(let ((.def_534 (+ .def_528 .def_533)))
(let ((.def_553 (<= .def_534 0.0 )))
(let ((.def_554 (not .def_553)))
(let ((.def_601 (or .def_551 .def_554)))
(let ((.def_540 (not .def_539)))
(let ((.def_535 (<= 0.0 .def_534)))
(let ((.def_600 (or .def_535 .def_540)))
(let ((.def_602 (and .def_600 .def_601)))
(let ((.def_598 (or .def_595 .def_597)))
(let ((.def_599 (not .def_598)))
(let ((.def_603 (or .def_599 .def_602)))
(let ((.def_536 (not .def_535)))
(let ((.def_591 (or .def_536 .def_539)))
(let ((.def_552 (not .def_551)))
(let ((.def_590 (or .def_552 .def_553)))
(let ((.def_592 (and .def_590 .def_591)))
(let ((.def_588 (or .def_581 .def_587)))
(let ((.def_589 (not .def_588)))
(let ((.def_593 (or .def_589 .def_592)))
(let ((.def_604 (and .def_593 .def_603)))
(let ((.def_566 (and .def_551 .def_553)))
(let ((.def_565 (and .def_535 .def_539)))
(let ((.def_567 (or .def_565 .def_566)))
(let ((.def_497 (* b.delta__AT1 .def_496)))
(let ((.def_498 (* 200.0 .def_497)))
(let ((.def_493 (* .def_480 .def_492)))
(let ((.def_494 (* 200.0 .def_493)))
(let ((.def_504 (+ .def_494 .def_498)))
(let ((.def_489 (* .def_351 .def_480)))
(let ((.def_490 (* 100.0 .def_489)))
(let ((.def_505 (+ .def_490 .def_504)))
(let ((.def_486 (* .def_481 .def_485)))
(let ((.def_487 (* 200.0 .def_486)))
(let ((.def_506 (+ .def_487 .def_505)))
(let ((.def_482 (* b.delta__AT1 .def_481)))
(let ((.def_483 (* 2401.0 .def_482)))
(let ((.def_507 (+ .def_483 .def_506)))
(let ((.def_479 (* 100.0 .def_478)))
(let ((.def_508 (+ .def_479 .def_507)))
(let ((.def_500 (* 100.0 .def_459)))
(let ((.def_509 (+ .def_500 .def_508)))
(let ((.def_502 (* 100.0 b.x__AT1)))
(let ((.def_510 (+ .def_502 .def_509)))
(let ((.def_545 (<= .def_510 0.0 )))
(let ((.def_559 (not .def_545)))
(let ((.def_543 (<= .def_460 0.0 )))
(let ((.def_560 (or .def_543 .def_559)))
(let ((.def_461 (<= 0.0 .def_460)))
(let ((.def_557 (not .def_461)))
(let ((.def_511 (<= 0.0 .def_510)))
(let ((.def_558 (or .def_511 .def_557)))
(let ((.def_561 (and .def_558 .def_560)))
(let ((.def_555 (or .def_552 .def_554)))
(let ((.def_556 (not .def_555)))
(let ((.def_562 (or .def_556 .def_561)))
(let ((.def_547 (not .def_511)))
(let ((.def_548 (or .def_461 .def_547)))
(let ((.def_544 (not .def_543)))
(let ((.def_546 (or .def_544 .def_545)))
(let ((.def_549 (and .def_546 .def_548)))
(let ((.def_541 (or .def_536 .def_540)))
(let ((.def_542 (not .def_541)))
(let ((.def_550 (or .def_542 .def_549)))
(let ((.def_563 (and .def_550 .def_562)))
(let ((.def_512 (and .def_461 .def_511)))
(let ((.def_564 (and .def_512 .def_563)))
(let ((.def_568 (and .def_564 .def_567)))
(let ((.def_605 (and .def_568 .def_604)))
(let ((.def_609 (and .def_605 .def_608)))
(let ((.def_635 (and .def_609 .def_634)))
(let ((.def_639 (and .def_635 .def_638)))
(let ((.def_643 (and .def_639 .def_642)))
(let ((.def_644 (and .def_78 .def_643)))
(let ((.def_47 (not b.counter.0__AT0)))
(let ((.def_470 (or b.counter.1__AT0 .def_47)))
(let ((.def_471 (or b.counter.2__AT0 .def_470)))
(let ((.def_50 (not b.counter.2__AT0)))
(let ((.def_45 (not b.counter.1__AT0)))
(let ((.def_48 (and .def_45 .def_47)))
(let ((.def_469 (or .def_48 .def_50)))
(let ((.def_472 (and .def_469 .def_471)))
(let ((.def_473 (or b.counter.3__AT0 .def_472)))
(let ((.def_466 (or .def_48 b.counter.2__AT0)))
(let ((.def_465 (or .def_45 .def_50)))
(let ((.def_467 (and .def_465 .def_466)))
(let ((.def_53 (not b.counter.3__AT0)))
(let ((.def_468 (or .def_53 .def_467)))
(let ((.def_474 (and .def_468 .def_473)))
(let ((.def_462 (and .def_78 .def_461)))
(let ((.def_457 (or .def_454 .def_456)))
(let ((.def_447 (or .def_357 .def_367)))
(let ((.def_451 (or b.counter.3__AT1 .def_447)))
(let ((.def_448 (or b.counter.2__AT1 .def_447)))
(let ((.def_446 (or .def_362 .def_367)))
(let ((.def_449 (and .def_446 .def_448)))
(let ((.def_450 (or .def_376 .def_449)))
(let ((.def_452 (and .def_450 .def_451)))
(let ((.def_458 (and .def_452 .def_457)))
(let ((.def_463 (and .def_458 .def_462)))
(let ((.def_441 (<= 0.0 b.delta__AT0)))
(let ((.def_66 (not b.EVENT.0__AT0)))
(let ((.def_64 (not b.EVENT.1__AT0)))
(let ((.def_270 (and .def_64 .def_66)))
(let ((.def_272 (not .def_270)))
(let ((.def_442 (or .def_272 .def_441)))
(let ((.def_443 (or b.EVENT.1__AT0 .def_442)))
(let ((.def_316 (= b.bool_atom__AT0 b.bool_atom__AT1)))
(let ((.def_311 (= b.counter.0__AT0 b.counter.0__AT1)))
(let ((.def_308 (= b.counter.1__AT0 b.counter.1__AT1)))
(let ((.def_305 (= b.counter.2__AT0 b.counter.2__AT1)))
(let ((.def_303 (= b.counter.3__AT0 b.counter.3__AT1)))
(let ((.def_306 (and .def_303 .def_305)))
(let ((.def_309 (and .def_306 .def_308)))
(let ((.def_312 (and .def_309 .def_311)))
(let ((.def_437 (and .def_312 .def_316)))
(let ((.def_438 (or .def_272 .def_437)))
(let ((.def_439 (or b.EVENT.1__AT0 .def_438)))
(let ((.def_419 (* b.speed_y__AT0 b.delta__AT0)))
(let ((.def_420 (* 10.0 .def_419)))
(let ((.def_424 (* (- 10.0) b.y__AT1)))
(let ((.def_428 (+ .def_424 .def_420)))
(let ((.def_87 (* b.delta__AT0 b.delta__AT0)))
(let ((.def_421 (* (- 49.0) .def_87)))
(let ((.def_429 (+ .def_421 .def_428)))
(let ((.def_426 (* 10.0 b.y__AT0)))
(let ((.def_430 (+ .def_426 .def_429)))
(let ((.def_431 (= .def_430 0.0 )))
(let ((.def_414 (* (- 5.0) b.speed_y__AT1)))
(let ((.def_234 (* (- 49.0) b.delta__AT0)))
(let ((.def_415 (+ .def_234 .def_414)))
(let ((.def_235 (* 5.0 b.speed_y__AT0)))
(let ((.def_416 (+ .def_235 .def_415)))
(let ((.def_417 (= .def_416 0.0 )))
(let ((.def_410 (* (- 1.0) b.x__AT1)))
(let ((.def_84 (* b.speed_x__AT0 b.delta__AT0)))
(let ((.def_411 (+ .def_84 .def_410)))
(let ((.def_412 (+ b.x__AT0 .def_411)))
(let ((.def_413 (= .def_412 0.0 )))
(let ((.def_418 (and .def_413 .def_417)))
(let ((.def_432 (and .def_418 .def_431)))
(let ((.def_297 (= b.speed_x__AT0 b.speed_x__AT1)))
(let ((.def_433 (and .def_297 .def_432)))
(let ((.def_434 (or .def_272 .def_433)))
(let ((.def_294 (= b.y__AT0 b.y__AT1)))
(let ((.def_291 (= b.x__AT0 b.x__AT1)))
(let ((.def_404 (and .def_291 .def_294)))
(let ((.def_405 (and .def_297 .def_404)))
(let ((.def_300 (= b.speed_y__AT0 b.speed_y__AT1)))
(let ((.def_406 (and .def_300 .def_405)))
(let ((.def_401 (= b.delta__AT0 0.0 )))
(let ((.def_402 (and .def_270 .def_401)))
(let ((.def_403 (not .def_402)))
(let ((.def_407 (or .def_403 .def_406)))
(let ((.def_408 (or b.EVENT.1__AT0 .def_407)))
(let ((.def_393 (and .def_297 .def_300)))
(let ((.def_394 (and .def_312 .def_393)))
(let ((.def_395 (or b.bool_atom__AT0 .def_394)))
(let ((.def_368 (or b.counter.0__AT0 .def_367)))
(let ((.def_366 (or .def_47 b.counter.0__AT1)))
(let ((.def_369 (and .def_366 .def_368)))
(let ((.def_370 (and .def_357 .def_369)))
(let ((.def_371 (or b.counter.1__AT0 .def_370)))
(let ((.def_365 (or .def_45 b.counter.1__AT1)))
(let ((.def_372 (and .def_365 .def_371)))
(let ((.def_384 (and .def_362 .def_372)))
(let ((.def_385 (or b.counter.2__AT0 .def_384)))
(let ((.def_379 (and .def_47 .def_357)))
(let ((.def_380 (or b.counter.1__AT0 .def_379)))
(let ((.def_381 (and .def_365 .def_380)))
(let ((.def_382 (and b.counter.2__AT1 .def_381)))
(let ((.def_383 (or .def_50 .def_382)))
(let ((.def_386 (and .def_383 .def_385)))
(let ((.def_387 (and b.counter.3__AT1 .def_386)))
(let ((.def_388 (or b.counter.3__AT0 .def_387)))
(let ((.def_373 (and b.counter.2__AT1 .def_372)))
(let ((.def_374 (or b.counter.2__AT0 .def_373)))
(let ((.def_360 (or b.counter.1__AT0 b.counter.1__AT1)))
(let ((.def_358 (and b.counter.0__AT1 .def_357)))
(let ((.def_359 (or .def_45 .def_358)))
(let ((.def_361 (and .def_359 .def_360)))
(let ((.def_363 (and .def_361 .def_362)))
(let ((.def_364 (or .def_50 .def_363)))
(let ((.def_375 (and .def_364 .def_374)))
(let ((.def_377 (and .def_375 .def_376)))
(let ((.def_378 (or .def_53 .def_377)))
(let ((.def_389 (and .def_378 .def_388)))
(let ((.def_346 (* b.speed_x__AT0 b.speed_x__AT0)))
(let ((.def_101 (* b.speed_y__AT0 b.speed_y__AT0)))
(let ((.def_347 (+ .def_101 .def_346)))
(let ((.def_348 (* .def_345 .def_347)))
(let ((.def_349 (* (- 1.0) .def_348)))
(let ((.def_353 (+ .def_349 .def_351)))
(let ((.def_354 (+ .def_344 .def_353)))
(let ((.def_355 (= .def_354 0.0 )))
(let ((.def_322 (* 2.0 b.y__AT0)))
(let ((.def_336 (* .def_322 .def_333)))
(let ((.def_337 (* b.speed_y__AT0 .def_336)))
(let ((.def_334 (* b.speed_x__AT0 .def_333)))
(let ((.def_340 (+ .def_334 .def_337)))
(let ((.def_341 (+ .def_331 .def_340)))
(let ((.def_342 (+ b.speed_x__AT1 .def_341)))
(let ((.def_343 (= .def_342 0.0 )))
(let ((.def_356 (and .def_343 .def_355)))
(let ((.def_390 (and .def_356 .def_389)))
(let ((.def_329 (not b.bool_atom__AT0)))
(let ((.def_391 (or .def_329 .def_390)))
(let ((.def_323 (* b.speed_y__AT0 .def_322)))
(let ((.def_324 (+ b.speed_x__AT0 .def_323)))
(let ((.def_325 (<= 0.0 .def_324)))
(let ((.def_326 (not .def_325)))
(let ((.def_69 (* b.y__AT0 b.y__AT0)))
(let ((.def_70 (+ b.x__AT0 .def_69)))
(let ((.def_321 (= .def_70 0.0 )))
(let ((.def_327 (and .def_321 .def_326)))
(let ((.def_328 (= b.bool_atom__AT0 .def_327)))
(let ((.def_392 (and .def_328 .def_391)))
(let ((.def_396 (and .def_392 .def_395)))
(let ((.def_397 (and .def_291 .def_396)))
(let ((.def_398 (and .def_294 .def_397)))
(let ((.def_399 (or .def_270 .def_398)))
(let ((.def_400 (or b.EVENT.1__AT0 .def_399)))
(let ((.def_409 (and .def_400 .def_408)))
(let ((.def_435 (and .def_409 .def_434)))
(let ((.def_277 (= b.time__AT0 b.time__AT1)))
(let ((.def_292 (and .def_277 .def_291)))
(let ((.def_295 (and .def_292 .def_294)))
(let ((.def_298 (and .def_295 .def_297)))
(let ((.def_301 (and .def_298 .def_300)))
(let ((.def_313 (and .def_301 .def_312)))
(let ((.def_317 (and .def_313 .def_316)))
(let ((.def_318 (or .def_64 .def_317)))
(let ((.def_281 (* (- 1.0) b.time__AT1)))
(let ((.def_284 (+ b.delta__AT0 .def_281)))
(let ((.def_285 (+ b.time__AT0 .def_284)))
(let ((.def_286 (= .def_285 0.0 )))
(let ((.def_287 (or .def_272 .def_286)))
(let ((.def_288 (or b.EVENT.1__AT0 .def_287)))
(let ((.def_278 (or .def_270 .def_277)))
(let ((.def_279 (or b.EVENT.1__AT0 .def_278)))
(let ((.def_289 (and .def_279 .def_288)))
(let ((.def_319 (and .def_289 .def_318)))
(let ((.def_274 (= .def_272 b.event_is_timed__AT1)))
(let ((.def_271 (= b.event_is_timed__AT0 .def_270)))
(let ((.def_275 (and .def_271 .def_274)))
(let ((.def_320 (and .def_275 .def_319)))
(let ((.def_436 (and .def_320 .def_435)))
(let ((.def_440 (and .def_436 .def_439)))
(let ((.def_444 (and .def_440 .def_443)))
(let ((.def_445 (and .def_64 .def_444)))
(let ((.def_464 (and .def_445 .def_463)))
(let ((.def_475 (and .def_464 .def_474)))
(let ((.def_237 (+ .def_235 .def_234)))
(let ((.def_250 (<= 0.0 .def_237)))
(let ((.def_251 (not .def_250)))
(let ((.def_248 (<= 0.0 b.speed_y__AT0)))
(let ((.def_265 (or .def_248 .def_251)))
(let ((.def_240 (<= b.speed_y__AT0 0.0 )))
(let ((.def_241 (not .def_240)))
(let ((.def_238 (<= .def_237 0.0 )))
(let ((.def_264 (or .def_238 .def_241)))
(let ((.def_266 (and .def_264 .def_265)))
(let ((.def_109 (* b.y__AT0 b.speed_y__AT0)))
(let ((.def_153 (* 2.0 .def_109)))
(let ((.def_154 (+ b.speed_x__AT0 .def_153)))
(let ((.def_167 (<= .def_154 0.0 )))
(let ((.def_261 (and .def_167 .def_250)))
(let ((.def_155 (<= 0.0 .def_154)))
(let ((.def_260 (and .def_155 .def_238)))
(let ((.def_262 (or .def_260 .def_261)))
(let ((.def_96 (* (- (/ 49 10)) b.speed_y__AT0)))
(let ((.def_128 (* 3.0 .def_96)))
(let ((.def_188 (* 2.0 .def_128)))
(let ((.def_189 (* b.delta__AT0 .def_188)))
(let ((.def_191 (* (- 50.0) .def_189)))
(let ((.def_193 (* (- 50.0) .def_101)))
(let ((.def_198 (+ .def_193 .def_191)))
(let ((.def_187 (* (- 7203.0) .def_87)))
(let ((.def_199 (+ .def_187 .def_198)))
(let ((.def_196 (* 490.0 b.y__AT0)))
(let ((.def_200 (+ .def_196 .def_199)))
(let ((.def_219 (<= 0.0 .def_200)))
(let ((.def_220 (not .def_219)))
(let ((.def_205 (* (- 5.0) .def_101)))
(let ((.def_206 (* 49.0 b.y__AT0)))
(let ((.def_208 (+ .def_206 .def_205)))
(let ((.def_217 (<= 0.0 .def_208)))
(let ((.def_255 (or .def_217 .def_220)))
(let ((.def_209 (<= .def_208 0.0 )))
(let ((.def_210 (not .def_209)))
(let ((.def_201 (<= .def_200 0.0 )))
(let ((.def_254 (or .def_201 .def_210)))
(let ((.def_256 (and .def_254 .def_255)))
(let ((.def_249 (not .def_248)))
(let ((.def_252 (or .def_249 .def_251)))
(let ((.def_253 (not .def_252)))
(let ((.def_257 (or .def_253 .def_256)))
(let ((.def_202 (not .def_201)))
(let ((.def_245 (or .def_202 .def_209)))
(let ((.def_218 (not .def_217)))
(let ((.def_244 (or .def_218 .def_219)))
(let ((.def_246 (and .def_244 .def_245)))
(let ((.def_239 (not .def_238)))
(let ((.def_242 (or .def_239 .def_241)))
(let ((.def_243 (not .def_242)))
(let ((.def_247 (or .def_243 .def_246)))
(let ((.def_258 (and .def_247 .def_257)))
(let ((.def_230 (and .def_167 .def_219)))
(let ((.def_229 (and .def_155 .def_201)))
(let ((.def_231 (or .def_229 .def_230)))
(let ((.def_105 (* (- (/ 49 10)) b.y__AT0)))
(let ((.def_138 (* 2.0 .def_105)))
(let ((.def_139 (* b.delta__AT0 .def_138)))
(let ((.def_140 (* 50.0 .def_139)))
(let ((.def_133 (* 2.0 .def_101)))
(let ((.def_134 (* b.delta__AT0 .def_133)))
(let ((.def_136 (* 25.0 .def_134)))
(let ((.def_146 (+ .def_136 .def_140)))
(let ((.def_129 (* .def_87 .def_128)))
(let ((.def_131 (* 50.0 .def_129)))
(let ((.def_147 (+ .def_131 .def_146)))
(let ((.def_142 (* 50.0 .def_109)))
(let ((.def_148 (+ .def_142 .def_147)))
(let ((.def_88 (* b.delta__AT0 .def_87)))
(let ((.def_126 (* 2401.0 .def_88)))
(let ((.def_149 (+ .def_126 .def_148)))
(let ((.def_144 (* 25.0 b.speed_x__AT0)))
(let ((.def_150 (+ .def_144 .def_149)))
(let ((.def_169 (<= .def_150 0.0 )))
(let ((.def_170 (not .def_169)))
(let ((.def_224 (or .def_167 .def_170)))
(let ((.def_156 (not .def_155)))
(let ((.def_151 (<= 0.0 .def_150)))
(let ((.def_223 (or .def_151 .def_156)))
(let ((.def_225 (and .def_223 .def_224)))
(let ((.def_221 (or .def_218 .def_220)))
(let ((.def_222 (not .def_221)))
(let ((.def_226 (or .def_222 .def_225)))
(let ((.def_152 (not .def_151)))
(let ((.def_214 (or .def_152 .def_155)))
(let ((.def_168 (not .def_167)))
(let ((.def_213 (or .def_168 .def_169)))
(let ((.def_215 (and .def_213 .def_214)))
(let ((.def_211 (or .def_202 .def_210)))
(let ((.def_212 (not .def_211)))
(let ((.def_216 (or .def_212 .def_215)))
(let ((.def_227 (and .def_216 .def_226)))
(let ((.def_182 (and .def_167 .def_169)))
(let ((.def_181 (and .def_151 .def_155)))
(let ((.def_183 (or .def_181 .def_182)))
(let ((.def_110 (* b.delta__AT0 .def_109)))
(let ((.def_111 (* 200.0 .def_110)))
(let ((.def_106 (* .def_87 .def_105)))
(let ((.def_107 (* 200.0 .def_106)))
(let ((.def_117 (+ .def_107 .def_111)))
(let ((.def_102 (* .def_87 .def_101)))
(let ((.def_103 (* 100.0 .def_102)))
(let ((.def_118 (+ .def_103 .def_117)))
(let ((.def_97 (* .def_88 .def_96)))
(let ((.def_99 (* 200.0 .def_97)))
(let ((.def_119 (+ .def_99 .def_118)))
(let ((.def_89 (* b.delta__AT0 .def_88)))
(let ((.def_91 (* 2401.0 .def_89)))
(let ((.def_120 (+ .def_91 .def_119)))
(let ((.def_86 (* 100.0 .def_84)))
(let ((.def_121 (+ .def_86 .def_120)))
(let ((.def_113 (* 100.0 .def_69)))
(let ((.def_122 (+ .def_113 .def_121)))
(let ((.def_115 (* 100.0 b.x__AT0)))
(let ((.def_123 (+ .def_115 .def_122)))
(let ((.def_161 (<= .def_123 0.0 )))
(let ((.def_175 (not .def_161)))
(let ((.def_159 (<= .def_70 0.0 )))
(let ((.def_176 (or .def_159 .def_175)))
(let ((.def_71 (<= 0.0 .def_70)))
(let ((.def_173 (not .def_71)))
(let ((.def_124 (<= 0.0 .def_123)))
(let ((.def_174 (or .def_124 .def_173)))
(let ((.def_177 (and .def_174 .def_176)))
(let ((.def_171 (or .def_168 .def_170)))
(let ((.def_172 (not .def_171)))
(let ((.def_178 (or .def_172 .def_177)))
(let ((.def_163 (not .def_124)))
(let ((.def_164 (or .def_71 .def_163)))
(let ((.def_160 (not .def_159)))
(let ((.def_162 (or .def_160 .def_161)))
(let ((.def_165 (and .def_162 .def_164)))
(let ((.def_157 (or .def_152 .def_156)))
(let ((.def_158 (not .def_157)))
(let ((.def_166 (or .def_158 .def_165)))
(let ((.def_179 (and .def_166 .def_178)))
(let ((.def_125 (and .def_71 .def_124)))
(let ((.def_180 (and .def_125 .def_179)))
(let ((.def_184 (and .def_180 .def_183)))
(let ((.def_228 (and .def_184 .def_227)))
(let ((.def_232 (and .def_228 .def_231)))
(let ((.def_259 (and .def_232 .def_258)))
(let ((.def_263 (and .def_259 .def_262)))
(let ((.def_267 (and .def_263 .def_266)))
(let ((.def_268 (and .def_78 .def_267)))
(let ((.def_79 (and .def_71 .def_78)))
(let ((.def_67 (or .def_64 .def_66)))
(let ((.def_57 (or .def_45 .def_47)))
(let ((.def_61 (or b.counter.3__AT0 .def_57)))
(let ((.def_58 (or b.counter.2__AT0 .def_57)))
(let ((.def_56 (or .def_47 .def_50)))
(let ((.def_59 (and .def_56 .def_58)))
(let ((.def_60 (or .def_53 .def_59)))
(let ((.def_62 (and .def_60 .def_61)))
(let ((.def_68 (and .def_62 .def_67)))
(let ((.def_80 (and .def_68 .def_79)))
(let ((.def_51 (and .def_48 .def_50)))
(let ((.def_54 (and .def_51 .def_53)))
(let ((.def_42 (= b.speed_y__AT0 1.0 )))
(let ((.def_39 (= b.speed_x__AT0 1.0 )))
(let ((.def_35 (= b.y__AT0 10.0 )))
(let ((.def_31 (= b.x__AT0 (- 9.0) )))
(let ((.def_25 (= b.time__AT0 0.0 )))
(let ((.def_27 (and .def_25 b.event_is_timed__AT0)))
(let ((.def_32 (and .def_27 .def_31)))
(let ((.def_36 (and .def_32 .def_35)))
(let ((.def_40 (and .def_36 .def_39)))
(let ((.def_43 (and .def_40 .def_42)))
(let ((.def_55 (and .def_43 .def_54)))
(let ((.def_81 (and .def_55 .def_80)))
(let ((.def_17 (or b.counter.1__AT2 .def_9)))
(let ((.def_18 (or b.counter.2__AT2 .def_17)))
(let ((.def_10 (and .def_6 .def_9)))
(let ((.def_16 (or .def_4 .def_10)))
(let ((.def_19 (and .def_16 .def_18)))
(let ((.def_20 (or b.counter.3__AT2 .def_19)))
(let ((.def_11 (or b.counter.2__AT2 .def_10)))
(let ((.def_7 (or .def_4 .def_6)))
(let ((.def_12 (and .def_7 .def_11)))
(let ((.def_15 (or .def_12 .def_14)))
(let ((.def_21 (and .def_15 .def_20)))
(let ((.def_22 (not .def_21)))
(let ((.def_82 (and .def_22 .def_81)))
(let ((.def_269 (and .def_82 .def_268)))
(let ((.def_476 (and .def_269 .def_475)))
(let ((.def_645 (and .def_476 .def_644)))
(let ((.def_836 (and .def_645 .def_835)))
(let ((.def_1005 (and .def_836 .def_1004)))
.def_1005))))))))))))))))))))))))))))))))))))))))))))))))))))))))))))))))))))))))))))))))))))))))))))))))))))))))))))))))))))))))))))))))))))))))))))))))))))))))))))))))))))))))))))))))))))))))))))))))))))))))))))))))))))))))))))))))))))))))))))))))))))))))))))))))))))))))))))))))))))))))))))))))))))))))))))))))))))))))))))))))))))))))))))))))))))))))))))))))))))))))))))))))))))))))))))))))))))))))))))))))))))))))))))))))))))))))))))))))))))))))))))))))))))))))))))))))))))))))))))))))))))))))))))))))))))))))))))))))))))))))))))))))))))))))))))))))))))))))))))))))))))))))))))))))))))))))))))))))))))))))))))))))))))))))))))))))))))))))))))))))))))))))))))))))))))))))))))))))))))))))))))))))))))))))))))))))))))))))))))))))))))))))))))))))))))))))))))))))))))))))))))))))))))))))))))))))))))))))))))))))))))))))))))))))))))))))))))))))))))))))))))))))))))))))))))))))))
(check-sat)
(exit)
